W=7;
H=7;

MAX_TIME=14;
MAX_TRACKS=13;

TARGET=(2,7);

TRAINS=[(2,1,RIGHT),(6,4,RIGHT),(6,1,RIGHT)];
DECOYS=[(4,1,RIGHT)];

INIT_POS=[
(2,1,STRAIGHT_RL),
(2,2,SWITCH_L_R_D),
(2,4,DSWITCH_L_R_D),
(2,6,STRAIGHT_RL),
(2,7,STRAIGHT_RL),
(3,2,STRAIGHT_TD),
(4,1,STRAIGHT_RL),
(4,2,SWITCH_D_T_L),
(4,4,DSWITCH_R_L_T),
(4,6,CORNER_TR),
(5,2,STRAIGHT_TD),
(6,1,STRAIGHT_RL),
(6,2,CORNER_TL),
(6,4,STRAIGHT_RL),
(6,6,STRAIGHT_TD),
];
TUNNEL_PAIRS=[];

GATES=[];
ACTIVATIONS=[
(4,6,1),
(6,6,2),
];

DSWITCHES=[
(2,4,2),
(4,4,1),
];
STATIONS=[];
